
Gurobi 12.0.2 (win64) logging started Sat Nov  1 19:37:46 2025

Set parameter LogFile to value "resultados DATA_1_n30m05b2d1\instancia_10_log.txt"
Set parameter TimeLimit to value 360
Gurobi Optimizer version 12.0.2 build v12.0.2rc0 (win64 - Windows 10.0 (19045.2))

CPU model: Intel(R) Core(TM) i5-6300U CPU @ 2.40GHz, instruction set [SSE2|AVX|AVX2]
Thread count: 2 physical cores, 4 logical processors, using up to 4 threads

Non-default parameters:
TimeLimit  360

Optimize a model with 3365 rows, 8376 columns and 2041320 nonzeros
Model fingerprint: 0x803fb0e8
Variable types: 0 continuous, 8376 integer (8376 binary)
Coefficient statistics:
  Matrix range     [1e+00, 1e+00]
  Objective range  [1e-02, 6e-02]
  Bounds range     [1e+00, 1e+00]
  RHS range        [1e+00, 2e+01]
Found heuristic solution: objective 0.6814815
Presolve removed 61 rows and 6570 columns
Presolve time: 4.06s
Presolved: 3304 rows, 1806 columns, 365180 nonzeros
Found heuristic solution: objective 0.2847407
Variable types: 0 continuous, 1806 integer (1806 binary)

Root simplex log...

Iteration    Objective       Primal Inf.    Dual Inf.      Time
    2157    9.3023436e-01   2.193910e+03   0.000000e+00      5s
    5613    9.1586214e-01   0.000000e+00   0.000000e+00      7s

Root relaxation: objective 9.158621e-01, 5613 iterations, 2.34 seconds (2.65 work units)

    Nodes    |    Current Node    |     Objective Bounds      |     Work
 Expl Unexpl |  Obj  Depth IntInf | Incumbent    BestBd   Gap | It/Node Time

     0     0    0.91586    0  216    0.68148    0.91586  34.4%     -    7s
H    0     0                       0.6948148    0.91586  31.8%     -    7s
H    0     0                       0.7359630    0.91586  24.4%     -    7s
H    0     0                       0.8099259    0.91586  13.1%     -    7s
     0     0    0.91586    0  218    0.80993    0.91586  13.1%     -    8s
H    0     0                       0.8230370    0.91586  11.3%     -    8s
H    0     0                       0.8808889    0.91586  3.97%     -    9s
H    0     0                       0.8939259    0.91586  2.45%     -    9s
     0     0    0.91454    0  203    0.89393    0.91454  2.31%     -   11s
     0     0    0.91454    0  178    0.89393    0.91454  2.31%     -   13s
H    0     0                       0.9000000    0.91454  1.62%     -   13s
H    0     0                       0.9010370    0.91454  1.50%     -   13s
     0     0    0.91380    0  234    0.90104    0.91380  1.42%     -   15s
     0     0    0.91380    0  216    0.90104    0.91380  1.42%     -   15s
     0     0    0.91380    0  209    0.90104    0.91380  1.42%     -   16s
     0     0    0.91380    0  230    0.90104    0.91380  1.42%     -   17s
     0     0    0.91380    0  225    0.90104    0.91380  1.42%     -   17s
     0     0    0.91380    0  224    0.90104    0.91380  1.42%     -   18s
     0     0    0.91380    0  209    0.90104    0.91380  1.42%     -   19s
     0     0    0.91380    0  215    0.90104    0.91380  1.42%     -   19s
     0     0    0.91380    0  210    0.90104    0.91380  1.42%     -   20s
     0     0    0.91380    0  210    0.90104    0.91380  1.42%     -   21s
     0     2    0.91380    0  210    0.90104    0.91380  1.42%     -   24s
     1     4    0.91380    1  220    0.90104    0.91380  1.42%   790   26s
    29    37    0.91112   14  276    0.90104    0.91380  1.42%   644   31s
    78    67    0.91361   23  275    0.90104    0.91380  1.42%   352   35s
   119    94    0.91041   36  312    0.90104    0.91380  1.42%   340   40s
   145   108    0.90884   53  336    0.90104    0.91380  1.42%   402   45s
   169   123    0.90799   70  364    0.90104    0.91377  1.41%   433   52s
   176   127     cutoff   72         0.90104    0.91377  1.41%   508   55s
   211   128    0.90316   11   63    0.90104    0.91369  1.40%   568   61s
   225   129    0.90137   14   80    0.90104    0.91369  1.40%   600   65s
   255   128     cutoff   17         0.90104    0.91368  1.40%   622   70s
   273   120     cutoff   40         0.90104    0.91364  1.40%   638   76s
   285   123    0.90273   25  119    0.90104    0.91314  1.34%   681   80s
   320   123     cutoff   26         0.90104    0.91201  1.22%   690   86s
   348   115    0.90759    5  218    0.90104    0.91125  1.13%   722   92s
   361   104     cutoff    8         0.90104    0.91111  1.12%   713   95s
   387    91     cutoff    9         0.90104    0.91036  1.04%   735  100s
   406    70     cutoff   50         0.90104    0.90930  0.92%   770  105s
   428    61     cutoff   21         0.90104    0.90864  0.84%   807  112s
   443    56     cutoff   63         0.90104    0.90839  0.82%   818  116s
   470    11     cutoff   10         0.90104    0.90696  0.66%   846  122s

Cutting planes:
  Gomory: 6
  Zero half: 10

Explored 521 nodes (433029 simplex iterations) in 123.26 seconds (191.33 work units)
Thread count was 4 (of 4 available processors)

Solution count 10: 0.901037 0.9 0.893926 ... 0.284741
No other solutions better than 0.901037

Optimal solution found (tolerance 1.00e-04)
Best objective 9.010370370370e-01, best bound 9.010370370370e-01, gap 0.0000%
